&CONTROL
  calculation = 'vc-relax'
  etot_conv_thr =   4.8000000000d-07
  forc_conv_thr =   1.0000000000d-06
  outdir = './out3/'
  pseudo_dir = './'
  tprnfor = .true.
  tstress = .true.
  verbosity = 'high'
  nstep = 200
/
&SYSTEM
  degauss =   7.3498618000d-03
  ecutrho =   10.000000000d+02
  ecutwfc =   12.00000000000d+01
    ibrav = 0
    nat   = 30
    ntyp  = 2
  nosym = .false.
  occupations = 'smearing'
  smearing = 'cold'
/
&ELECTRONS
  conv_thr =   1.6000000000d-10
  electron_maxstep = 200
  mixing_beta =   4.0000000000d-01
/
&IONS
    ion_dynamics = "bfgs"
/

&CELL
press_conv_thr = 1.0000000000d-02
/
ATOMIC_SPECIES
Al   26.98154  Al.upf
O    15.99940  O.upf
CELL_PARAMETERS (angstrom)
   4.800665828  -0.000000000   0.000000000
  -2.400332914   4.157498790   0.000000000
   0.000000000   0.000000000  13.100015534

ATOMIC_POSITIONS (angstrom)
Al           -0.0000000000       -0.0000000000        4.6119220541
Al            2.4003329141        1.3858332667        8.9785939202
Al            0.0000000000        2.7716655237        0.2452502260
Al            0.0000000000        0.0000000000       11.1619298993
Al            2.4003329141        1.3858332667        2.4285861841
Al            0.0000000000        2.7716655237        6.7952580345
Al            0.0000000000        0.0000000000        1.9380856343
Al            2.4003329141        1.3858332667        6.3047574991
Al            0.0000000000        2.7716655237       10.6714293496
Al           -0.0000000000       -0.0000000000        8.4880934795
Al            2.4003329141        1.3858332667       12.8547653076
Al            0.0000000000        2.7716655237        4.1214216135
O             1.4691515690        0.0000000401        3.2750039952
O             3.8694846308        1.3858332294        7.6416758619
O             1.4691517118        2.7716656526       12.0083477071
O             0.7345757497        1.2723224785        9.8250115384
O             3.1349086584        2.6581549035        1.0916678266
O             0.7345758906        4.0439880913        5.4583396717
O            -0.7345758192        1.2723224384        3.2750039952
O             1.6657570881        2.6581548619        7.6416758619
O            -0.7345759675        4.0439880414       12.0083477071
O             3.3315142593       -0.0000000401        9.8250115384
O             0.9311812023        1.3858331379        1.0916678266
O            -1.4691517166        2.7716655610        5.4583396717
O             1.6657571644        2.8851763119        3.2750039952
O             1.6657570235        0.1135106991        7.6416758619
O            -0.7345757443        1.4993428771       12.0083477071
O            -1.6657570949        2.8851763520        9.8250115384
O             3.1349088816        0.1135107491        1.0916678266
O             0.7345758260        1.4993429187        5.4583396717

K_POINTS {automatic}
8 8 4 0 0 0