&CONTROL
  calculation = 'vc-relax'
  etot_conv_thr =   4.8000000000d-06
  forc_conv_thr =   1.0000000000d-05
  outdir = './out/'
  pseudo_dir = './'
  tprnfor = .true.
  tstress = .true.
  verbosity = 'high'
  nstep = 200
/
&SYSTEM
  degauss =   7.3498618000d-03
  ecutrho =   10.000000000d+02
  ecutwfc =   12.00000000000d+01
    ibrav = 0
    nat   = 32
    ntyp  = 3
  nosym = .true.
  occupations = 'smearing'
  smearing = 'cold'
/
&ELECTRONS
  conv_thr =   9.6000000000d-09
  electron_maxstep = 200
  mixing_beta =   1.0000000000d-01
/
&IONS
    ion_dynamics = "bfgs"
/

&CELL
press_conv_thr = 2.0000000000d-01
/
ATOMIC_SPECIES
Al   26.98154  Al.pbe-n-kjpaw_psl.1.0.0.UPF
O    15.99940  O.pbe-n-kjpaw_psl.1.0.0.UPF
Si   28.08550  Si.pbe-n-kjpaw_psl.1.0.0.UPF

CELL_PARAMETERS {angstrom}
      7.1262000000       0.0000000000       0.0000000000
     -2.1682562539       7.5466925747       0.0000000000
     -1.0737637631      -0.3074934315       5.4593150606


ATOMIC_POSITIONS {angstrom}
Al	0.5486320	5.2862100	2.4501120
Al	3.5257750	2.1174540	2.8971420
Al	-0.4007200	5.0986440	5.0825650
Al	4.4751270	2.3050210	0.2646890
Al	-0.8584080	2.7827650	3.4238470
Al	4.9328150	4.6208990	1.9234070
Al	-0.8438110	7.0195310	0.8817620
Al	4.9182170	0.3841330	4.4654920
Si	0.9252930	0.2872300	3.7783700
Si	3.1491140	7.1164350	1.5688840
Si	1.2807190	2.4987140	1.0117010
Si	2.7936880	4.9049510	4.3355540
O	0.3600130	1.0922790	0.6887260
O	3.7143930	6.3113850	4.6585280
O	-0.4396330	5.2278680	0.9689230
O	4.5140400	2.1757960	4.3783320
O	-0.1991640	3.2143140	5.1050240
O	4.2735700	4.1893500	0.2422310
O	-0.8370660	6.9254180	5.0012870
O	4.9114730	0.4782470	0.3459670
O	-0.4837030	0.9702790	3.5660840
O	4.5581100	6.4333860	1.7811700
O	-1.0687000	4.6670210	3.4163610
O	5.1431070	2.7366430	1.9308940
O	0.6774400	3.3018210	2.2929030
O	3.3969670	4.1018430	3.0543520
O	-0.0720070	7.1538570	2.4912860
O	4.1464130	0.2498070	2.8559690
O	2.7774110	2.0445740	1.3047300
O	1.2969960	5.3590910	4.0425240
O	2.0617470	1.5538780	4.0387810
O	2.0126590	5.8497860	1.3084730

K_POINTS {automatic}
3 3 3 0 0 0
