&CONTROL
  calculation = 'scf'
  etot_conv_thr =   4.2000000000d-04
  forc_conv_thr =   1.0000000000d-04
  outdir = './out/'
  prefix = 'aiida'
  pseudo_dir = './'
  tprnfor = .true.
  tstress = .true.
  verbosity = 'high'
/
&SYSTEM
  degauss =   1.4699723600d-02
  ecutrho =   4.0000000000d+02
  ecutwfc =   5.0000000000d+01
  ibrav = 0
  nat = 42
  nosym = .false.
  ntyp = 4
  occupations = 'smearing'
  smearing = 'cold'
/
&ELECTRONS
  conv_thr =   8.4000000000d-09
  electron_maxstep = 80
  mixing_beta =   4.0000000000d-01
/
ATOMIC_SPECIES
Ca     40.07800  Ca.upf
O      15.99940  O.upf
P      30.97376  P.upf
F      18.99840  F.upf
ATOMIC_POSITIONS crystal
Ca           0.6666700000       0.3333300000       0.0010000000 
Ca           0.6666600000       0.3333300000       0.4990000000 
Ca           0.3333400000       0.6666700000       0.5010000000 
Ca           0.3333300000       0.6666600000       0.9990000000 
Ca           0.9928800000       0.2422700000       0.2500000000 
Ca           0.2493900000       0.0071200000       0.2500000000 
Ca           0.7506100000       0.9928800000       0.7500000000 
Ca           0.2422700000       0.2493900000       0.7500000000 
Ca           0.7577300000       0.7506100000       0.2500000000 
Ca           0.0071200000       0.7577300000       0.7500000000 
P            0.3689500000       0.3985000000       0.2500000000 
P            0.0295500000       0.6310500000       0.2500000000 
P            0.9704500000       0.3689500000       0.7500000000 
P            0.3985000000       0.0295500000       0.7500000000 
P            0.6015000000       0.9704500000       0.2500000000 
P            0.6310500000       0.6015000000       0.7500000000 
O            0.4849000000       0.3273000000       0.2500000000 
O            0.8424000000       0.5151000000       0.2500000000 
O            0.1576000000       0.4849000000       0.7500000000 
O            0.3273000000       0.8424000000       0.7500000000 
O            0.6727000000       0.1576000000       0.2500000000 
O            0.5151000000       0.6727000000       0.7500000000 
O            0.4667000000       0.5875000000       0.2500000000 
O            0.1208000000       0.5333000000       0.2500000000 
O            0.8792000000       0.4667000000       0.7500000000 
O            0.5875000000       0.1208000000       0.7500000000 
O            0.4125000000       0.8792000000       0.2500000000 
O            0.5333000000       0.4125000000       0.7500000000 
O            0.2575000000       0.3421000000       0.0705000000 
O            0.0846000000       0.7425000000       0.4295000000 
O            0.9154000000       0.2575000000       0.5705000000 
O            0.3421000000       0.0846000000       0.9295000000 
O            0.6579000000       0.9154000000       0.0705000000 
O            0.2575000000       0.3421000000       0.4295000000 
O            0.7425000000       0.6579000000       0.5705000000 
O            0.9154000000       0.2575000000       0.9295000000 
O            0.0846000000       0.7425000000       0.0705000000 
O            0.6579000000       0.9154000000       0.4295000000 
O            0.3421000000       0.0846000000       0.5705000000 
O            0.7425000000       0.6579000000       0.9295000000 
F            0.0000000000       0.0000000000       0.2500000000 
F            0.0000000000       0.0000000000       0.7500000000 
K_POINTS automatic
2 2 2 0 0 0
CELL_PARAMETERS angstrom
      9.3973000000       0.0000000000       0.0000000000
     -4.6986500000       8.1383005270       0.0000000000
      0.0000000000       0.0000000000       6.8782000000