&CONTROL
  calculation = 'vc-relax'
  etot_conv_thr =   4.8000000000d-06
  forc_conv_thr =   1.0000000000d-05
  outdir = './outvc/'
  pseudo_dir = './'
  tprnfor = .true.
  tstress = .true.
  verbosity = 'high'
  nstep = 200
/
&SYSTEM
  degauss =   1.4699723600d-02
  ecutrho =   1.0800000000d+03
  ecutwfc =   12.0000000000d+01
  ibrav = 0
  nat = 16
  nosym = .false.
  nspin = 2
  ntyp = 1
  occupations = 'smearing'
  smearing = 'cold'
  starting_magnetization(1) =   3.1250000000d-01
/
&ELECTRONS
  conv_thr =   9.6000000000d-09
  electron_maxstep = 200
  mixing_beta =   4.0000000000d-01
/
&IONS
    ion_dynamics = "bfgs"
/

&CELL
press_conv_thr = 2.0000000000d-01
/
ATOMIC_SPECIES
Fe     55.84500  Fe.upf
CELL_PARAMETERS (angstrom)
   5.672807099   0.000000000   0.000000000
   0.000000000   5.672807099   0.000000000
   0.000000000   0.000000000   5.672807099

ATOMIC_POSITIONS (crystal)
Fe      0.000000   0.000000   0.000000
Fe      0.250000   0.250000   0.250000
Fe      0.000000   0.000000   0.500000
Fe      0.250000   0.250000   0.750000
Fe      0.000000   0.500000   0.000000
Fe      0.250000   0.750000   0.250000
Fe      0.000000   0.500000   0.500000
Fe      0.250000   0.750000   0.750000
Fe      0.500000   0.000000   0.000000
Fe      0.750000   0.250000   0.250000
Fe      0.500000   0.000000   0.500000
Fe      0.750000   0.250000   0.750000
Fe      0.500000   0.500000   0.000000
Fe      0.750000   0.750000   0.250000
Fe      0.500000   0.500000   0.500000
Fe      0.750000   0.750000   0.750000

K_POINTS {automatic}
8 8 8 0 0 0