&CONTROL
  calculation = 'vc-relax'
  etot_conv_thr =   4.8000000000d-06
  forc_conv_thr =   1.0000000000d-05
  outdir = './out/'
  pseudo_dir = '/home/ikharagpur/Desktop/Aritri/benchmark_pots/FAP/oncv_pbe'
  tprnfor = .true.
  tstress = .true.
  verbosity = 'high'
  nstep = 200
/
&SYSTEM
  degauss =   7.3498618000d-03
  ecutrho =   9.000000000d+02
  ecutwfc =   10.00000000000d+01
    ibrav = 0
    nat   = 16
    ntyp  = 2
  nosym = .false.
  occupations = 'smearing'
  smearing = 'cold'
/
&ELECTRONS
  conv_thr =   9.6000000000d-09
  electron_maxstep = 200
  mixing_beta =   4.0000000000d-01
/
&IONS
    ion_dynamics = "bfgs"
/

&CELL
press_conv_thr = 2.0000000000d-01
/
CELL_PARAMETERS {angstrom}
  8.122200   0.000000   0.000000
  0.000000   4.061100   0.000000
  0.000000   0.000000   4.061100
ATOMIC_SPECIES
Li     6.94100  Li.upf
F     18.99840  F.upf

ATOMIC_POSITIONS {angstrom}
Li      0.000000   0.000000   0.000000
Li      0.000000   2.030550   2.030550
Li      2.030550   0.000000   2.030550
Li      2.030550   2.030550   0.000000
F       0.000000   2.030550   0.000000
F       0.000000   0.000000   2.030550
F       2.030550   2.030550   2.030550
F       2.030550   0.000000   0.000000
Li      4.061102   0.000000   0.000000
Li      4.061102   2.030550   2.030550
Li      6.091652   0.000000   2.030550
Li      6.091652   2.030550   0.000000
F       4.061102   2.030550   0.000000
F       4.061102   0.000000   2.030550
F       6.091652   2.030550   2.030550
F       6.091652   0.000000   0.000000


K_POINTS {automatic}
4 4 4 0 0 0