&CONTROL
  calculation = 'vc-relax'
  etot_conv_thr =   4.8000000000d-06
  forc_conv_thr =   1.0000000000d-05
  outdir = './out/'
  pseudo_dir = './'
  tprnfor = .true.
  tstress = .true.
  verbosity = 'high'
  nstep = 200
/
&SYSTEM
  degauss =   7.3498618000d-03
  ecutrho =   10.500000000d+02
  ecutwfc =   12.50000000000d+01
  ibrav = 0
	nat = 48
  nosym = .false.
  ntyp = 2
  occupations = 'smearing'
  smearing = 'cold'
/
&ELECTRONS
  conv_thr =   9.6000000000d-09
  electron_maxstep = 200
  mixing_beta =   4.0000000000d-01
/
&IONS
    ion_dynamics = "bfgs"
/

&CELL
press_conv_thr = 2.0000000000d-01
/

ATOMIC_SPECIES
F      18.9984032 F.pbe-n-rrkjus_psl.1.0.0.UPF
Mg     24.305 Mg.pbe-spnl-rrkjus_psl.1.0.0.UPF

ATOMIC_POSITIONS angstrom
Mg	0.0000000	0.0000000	0.0000000
Mg	2.3075980	2.3075980	1.5238920
Mg	0.0000000	0.0000000	3.0477830
Mg	2.3075980	2.3075980	4.5716750
Mg	0.0000000	4.6151960	0.0000000
Mg	6.9227950	2.3075980	1.5238920
Mg	2.3075980	6.9227950	1.5238920
Mg	4.6151960	0.0000000	0.0000000
Mg	0.0000000	4.6151960	3.0477830
Mg	6.9227950	2.3075980	4.5716750
Mg	2.3075980	6.9227950	4.5716750
Mg	4.6151960	0.0000000	3.0477830
Mg	4.6151960	4.6151960	0.0000000
Mg	6.9227950	6.9227950	1.5238920
Mg	4.6151960	4.6151960	3.0477830
Mg	6.9227950	6.9227950	4.5716750
F	0.9095630	3.7056340	1.5238920
F	8.3208300	5.5247590	4.5716750
F	8.3208300	5.5247590	1.5238920
F	0.9095630	3.7056340	4.5716750
F	7.8323580	3.2171610	3.0477830
F	6.0132320	1.3980350	0.0000000
F	6.0132320	1.3980350	3.0477830
F	7.8323580	3.2171610	0.0000000
F	1.3980350	6.0132320	0.0000000
F	3.2171610	7.8323580	3.0477830
F	3.2171610	7.8323580	0.0000000
F	1.3980350	6.0132320	3.0477830
F	3.7056340	0.9095630	4.5716750
F	5.5247590	8.3208300	1.5238920
F	5.5247590	8.3208300	4.5716750
F	3.7056340	0.9095630	1.5238920
F	0.9095630	8.3208300	1.5238920
F	8.3208300	0.9095630	4.5716750
F	8.3208300	0.9095630	1.5238920
F	0.9095630	8.3208300	4.5716750
F	3.2171610	3.2171610	3.0477830
F	1.3980350	1.3980350	0.0000000
F	1.3980350	1.3980350	3.0477830
F	3.2171610	3.2171610	0.0000000
F	5.5247590	3.7056340	1.5238920
F	3.7056340	5.5247590	4.5716750
F	3.7056340	5.5247590	1.5238920
F	5.5247590	3.7056340	4.5716750
F	7.8323580	7.8323580	3.0477830
F	6.0132320	6.0132320	0.0000000
F	6.0132320	6.0132320	3.0477830
F	7.8323580	7.8323580	0.0000000

K_POINTS automatic
4 4 6 0 0 0

CELL_PARAMETERS angstrom
      9.2303930000       0.0000000000       0.0000000000
      0.0000000000       9.2303930000       0.0000000000
      0.0000000000       0.0000000000       6.0955670000
