&CONTROL
  calculation = 'vc-relax'
  etot_conv_thr =   4.8000000000d-06
  forc_conv_thr =   1.0000000000d-05
  outdir = './out/'
  pseudo_dir = '/home/ikharagpur/Desktop/Aritri/nano3_tri'
  tprnfor = .true.
  tstress = .true.
  verbosity = 'high'
  nstep = 200
/
&SYSTEM
  degauss =   7.3498618000d-03
  ecutrho =   9.000000000d+02
  ecutwfc =   9.00000000000d+01
    ibrav = 0
    nat   = 30
    ntyp  = 3
  nosym = .false.
  occupations = 'smearing'
  smearing = 'cold'
/
&ELECTRONS
  conv_thr =   9.6000000000d-09
  electron_maxstep = 200
  mixing_beta =   4.0000000000d-01
/
&IONS
    ion_dynamics = "bfgs"
/

&CELL
press_conv_thr = 2.0000000000d-01
/
ATOMIC_SPECIES
Na     22.98977  Na.upf
N      14.00674  N.upf
O      15.99940  O.upf
CELL_PARAMETERS (angstrom)
   5.164728223   0.000000000   0.000000000
  -2.582364111   4.472786025   0.000000000
  -0.000000000  -0.000000000  17.068630525

ATOMIC_POSITIONS (angstrom)
Na            0.0000000000        2.9818580321        2.8447877276
Na            0.0000000000        0.0000000000        0.0000000000
Na           -0.0000000000       -0.0000000000        8.5343403798
Na            2.5823641114        1.4909290160        5.6895614366
Na            2.5823641114        1.4909290160       14.2238940785
Na            0.0000000000        2.9818580321       11.3791203695
N             2.5823641114        1.4909290160        1.4224029072
N             0.0000000000        0.0000000000        4.2671721427
N             0.0000000000        2.9818580321        7.1119501672
N             2.5823641114        1.4909290160        9.9567316389
N            -0.0000000000       -0.0000000000       12.8015096634
N             0.0000000000        2.9818580321       15.6462788989
O             3.2136827781        0.3974469749        1.4224028689
O             3.2136873262        2.5844074084        1.4224028689
O             1.2626425317       -0.0000001807        4.2671721970
O            -0.6313211094        1.0934803586        4.2671721970
O             1.9510426891        3.3793058472        4.2671721970
O             1.3197222299        1.4909316419        1.4224028689
O             0.6313207194        1.8883771998        7.1119501803
O             0.6313211415        4.0753375976        7.1119501803
O             3.8450069953        1.4909287723        9.9567316259
O             1.9510433920        2.5844088253        9.9567316259
O             1.9510429699        0.3974484275        9.9567316259
O            -1.2626418609        2.9818582758        7.1119501803
O            -1.9510430020        3.3793056665       12.8015096092
O             0.6313214223        1.0934801780       12.8015096092
O             1.2626418815        2.9818554062       15.6462789373
O            -0.6313186667        4.0753390503       15.6462789373
O            -0.6313232148        1.8883786167       15.6462789373
O             3.9020867141        0.0000001807       12.8015096092


K_POINTS {automatic}
4 4 2 0 0 0