&CONTROL
  calculation = 'vc-relax'
  etot_conv_thr =   4.8000000000d-06
  forc_conv_thr =   1.0000000000d-05
  outdir = './out/'
  pseudo_dir = './'
  tprnfor = .true.
  tstress = .true.
  verbosity = 'high'
  nstep = 200
/
&SYSTEM
  degauss =   7.3498618000d-03
  ecutrho =   9.000000000d+02
  ecutwfc =   9.00000000000d+01
    ibrav = 0
    nat   = 24
    ntyp  = 2
  nosym = .false.
  occupations = 'smearing'
  smearing = 'cold'
/
&ELECTRONS
  conv_thr =   9.6000000000d-09
  electron_maxstep = 200
  mixing_beta =   4.0000000000d-01
/
&IONS
    ion_dynamics = "bfgs"
/

&CELL
press_conv_thr = 2.0000000000d-01
/

ATOMIC_SPECIES
Si     28.0855 Si.upf
Ti     47.867 Ti.upf
ATOMIC_POSITIONS crystal
Ti           0.0000000000       0.0000000000       0.5000000000 
Ti           0.2500000000       0.2500000000       0.7500000000 
Ti           0.5000000000       0.0000000000       0.0000000000 
Ti           0.7500000000       0.2500000000       0.2500000000 
Ti           0.5000000000       0.5000000000       0.5000000000 
Ti           0.7500000000       0.7500000000       0.7500000000 
Ti           0.0000000000       0.5000000000       0.0000000000 
Ti           0.2500000000       0.7500000000       0.2500000000 
Si           0.0000000000       0.1625656100       0.0000000000 
Si           0.0000000000       0.8374343900       0.0000000000 
Si           0.2500000000       0.0874343900       0.2500000000 
Si           0.2500000000       0.4125656100       0.2500000000 
Si           0.5000000000       0.1625656100       0.5000000000 
Si           0.5000000000       0.8374343900       0.5000000000 
Si           0.7500000000       0.0874343900       0.7500000000 
Si           0.7500000000       0.4125656100       0.7500000000 
Si           0.5000000000       0.6625656100       0.0000000000 
Si           0.5000000000       0.3374343900       0.0000000000 
Si           0.7500000000       0.5874343900       0.2500000000 
Si           0.7500000000       0.9125656100       0.2500000000 
Si           0.0000000000       0.6625656100       0.5000000000 
Si           0.0000000000       0.3374343900       0.5000000000 
Si           0.2500000000       0.5874343900       0.7500000000 
Si           0.2500000000       0.9125656100       0.7500000000 
K_POINTS automatic
7 4 4 0 0 0
CELL_PARAMETERS angstrom
      4.7790239100       0.0000000000       0.0000000000
      0.0000000000       8.2350326100       0.0000000000
      0.0000000000       0.0000000000       8.5257956700
